; benchmark generated from python API
(set-info :status unknown)
(declare-datatypes ((IntState 0)) (((Mk1 (val1 Int)) (Mk2 (val2 Int)))))
 (declare-fun c_mult_~n () Int)
(declare-fun |c_mult_#in~n| () Int)
(declare-fun |c_mult_#t~ret1| () Int)
(assert
 (let (($x122 (exists ((v_nnf_29_st IntState) (val!74 Int) )(exists ((v_nnf_28_st IntState) (val!75 Int) )(let (($x62 (<= |c_mult_#in~n| c_mult_~n)))
 (let (($x165 (<= (+ (* 2 (val2 v_nnf_29_st)) (* 2 (val2 v_nnf_28_st)) 1) |c_mult_#t~ret1|)))
 (let (($x43 (and $x165 (<= c_mult_~n (val2 v_nnf_29_st)) (<= (val2 v_nnf_29_st) (val2 v_nnf_28_st)) $x62)))
 (let (($x52 (not (= v_nnf_28_st (Mk1 val!75)))))
 (let (($x101 (not (= v_nnf_29_st (Mk1 val!74)))))
 (and $x101 $x52 $x43)))))))
 )
 ))
 (let (($x70 (exists ((v_nnf_29 Int) )(exists ((v_nnf_28 Int) )(let (($x62 (<= |c_mult_#in~n| c_mult_~n)))
 (and (<= (+ (* 2 v_nnf_29) (* 2 v_nnf_28) 1) |c_mult_#t~ret1|) (<= c_mult_~n v_nnf_29) (<= v_nnf_29 v_nnf_28) $x62)))
 )
 ))
 (let (($x62 (<= |c_mult_#in~n| c_mult_~n)))
 (and (and $x62 $x70) (not $x122))))))
(check-sat)
